************************************************************************
file with basedata            : cr536_.bas
initial value random generator: 121188569
************************************************************************
projects                      :  1
jobs (incl. supersource/sink ):  18
horizon                       :  127
RESOURCES
  - renewable                 :  5   R
  - nonrenewable              :  2   N
  - doubly constrained        :  0   D
************************************************************************
PROJECT INFORMATION:
pronr.  #jobs rel.date duedate tardcost  MPM-Time
    1     16      0       25       11       25
************************************************************************
PRECEDENCE RELATIONS:
jobnr.    #modes  #successors   successors
   1        1          3           2   3   4
   2        3          3           6   9  13
   3        3          2           9  15
   4        3          3           5   7  10
   5        3          3          11  13  17
   6        3          3          11  14  15
   7        3          2           8  13
   8        3          3          11  14  17
   9        3          1          10
  10        3          2          12  17
  11        3          1          12
  12        3          1          16
  13        3          2          14  15
  14        3          1          16
  15        3          1          18
  16        3          1          18
  17        3          1          18
  18        1          0        
************************************************************************
REQUESTS/DURATIONS:
jobnr. mode duration  R 1  R 2  R 3  R 4  R 5  N 1  N 2
------------------------------------------------------------------------
  1      1     0       0    0    0    0    0    0    0
  2      1     4       0    0    0    0    1    0    5
         2     6       0    7    0    9    0    4    0
         3     6       0    7    9    0    1    0    2
  3      1     2       0    5    8    0    0    8    0
         2     7       0    4    7    8    0    6    0
         3     9       2    4    5    0    0    5    0
  4      1     2       8    0    3    0    7    8    0
         2     5       8    0    3    6    2    7    0
         3     5       8    4    3    6    4    0    7
  5      1     2       4    0    0    7    7    9    0
         2     3       3    4    0    7    0    8    0
         3     9       0    0    6    6    0    7    0
  6      1     4       4    3    0    0    0    6    0
         2     6       0    3    0    5   10    3    0
         3     6       4    0    9    0    0    2    0
  7      1     3       2    0    0    0    0    1    0
         2     8       0    0    1    4    0    0    9
         3     8       2    0    2    8    0    0    8
  8      1     5       2    0   10    0    0    0    6
         2     8       2    9    0    0   10    0    3
         3     8       2    0    0    0    0    7    0
  9      1     2       0    0    7    9    0    3    0
         2     4       6    6    0    8    4    0    5
         3     8       0    0    7    0    2    3    0
 10      1     1       4    8    0    8    0    0    8
         2     2       3    8    0    0    0    6    0
         3     8       2    0    0    6    0    3    0
 11      1     2       7   10    9    9    0    0    4
         2     6       6    0    8    7    9    7    0
         3     8       0    9    6    7    0    0    3
 12      1     7       0    3    0    2    0    7    0
         2     8       8    3    3    0    0    6    0
         3     9       7    0    0    0    0    6    0
 13      1     4       0    0    0    9    4    5    0
         2     6      10    0    5    0    0    0   10
         3    10       0    0    5    5    4    2    0
 14      1     4       4    8    0    0    7    0    2
         2     5       0    0    9    4    0    6    0
         3     9       0    8    8    3    0    3    0
 15      1     2       8    0    5    8    5    0    6
         2     7       0    0    0    7    0    6    0
         3     8       5    3    0    0    0    3    0
 16      1     6       0    0    3    2    0    0    6
         2     7       2    7    2    0    6    2    0
         3     7       0    0    2    0    8    5    0
 17      1     3       3    6    5    0    0   10    0
         2     7       0    0    0    0    7    0    4
         3     9       0    3    0    0    7    0    2
 18      1     0       0    0    0    0    0    0    0
************************************************************************
RESOURCEAVAILABILITIES:
  R 1  R 2  R 3  R 4  R 5  N 1  N 2
   25   27   25   32   28   40   18
************************************************************************
